Route #1: 17 51 16 63 23 56 41 64 42 43 1 73 33
Route #2: 6 2 74 28 62 22 61 21 48 30 68
Route #3: 45 29 5 47 36 69 71 60 70 20 37 15 57 27 52
Route #4: 13 54 19 14 59 66 11 65 38
Route #5: 10 31 55 25 50 18 24 49 3 44 32
Route #6: 12 40 9 39 72 58 53 35 8 7 26
Route #7: 67 46 34 4 75
Cost 718